Version identifier: 22.1.0.0 | 2022-03-09 | 1a383f8ce
CPXPARAM_Threads                                 1
CPXPARAM_MIP_Strategy_VariableSelect             3
CPXPARAM_TimeLimit                               599.98994355000002
Tried aggregator 1 time.
MIP Presolve eliminated 18 rows and 0 columns.
MIP Presolve modified 1 coefficients.
Reduced MIP has 2360 rows, 5240 columns, and 55360 nonzeros.
Reduced MIP has 5240 binaries, 0 generals, 0 SOSs, and 0 indicators.
Presolve time = 0.04 sec. (25.58 ticks)
Found incumbent of value 0.000000 after 0.13 sec. (74.93 ticks)

Root node processing (before b&c):
  Real time             =    0.13 sec. (75.13 ticks)
Sequential b&c:
  Real time             =    0.00 sec. (0.00 ticks)
                          ------------
Total (root+branch&cut) =    0.13 sec. (75.13 ticks)
Version identifier: 22.1.0.0 | 2022-03-09 | 1a383f8ce
CPXPARAM_Threads                                 1
CPXPARAM_MIP_Strategy_VariableSelect             3
CPXPARAM_TimeLimit                               599.81047830600005
Tried aggregator 1 time.
MIP Presolve eliminated 18 rows and 0 columns.
MIP Presolve modified 1 coefficients.
Reduced MIP has 3431 rows, 7620 columns, and 80707 nonzeros.
Reduced MIP has 7620 binaries, 0 generals, 0 SOSs, and 0 indicators.
Presolve time = 0.05 sec. (37.10 ticks)
Probing time = 0.01 sec. (4.12 ticks)
Tried aggregator 1 time.
Detecting symmetries...
Reduced MIP has 3431 rows, 7620 columns, and 80707 nonzeros.
Reduced MIP has 7620 binaries, 0 generals, 0 SOSs, and 0 indicators.
Presolve time = 0.06 sec. (47.51 ticks)
Probing time = 0.01 sec. (4.12 ticks)
Clique table members: 2276.
MIP emphasis: balance optimality and feasibility.
MIP search method: dynamic search.
Parallel mode: none, using 1 thread.
Root relaxation solution time = 0.26 sec. (209.43 ticks)

        Nodes                                         Cuts/
   Node  Left     Objective  IInf  Best Integer    Best Bound    ItCnt     Gap

      0     0        0.0000   886                      0.0000     1855         
*     0+    0                            0.0000        0.0000             0.00%
      0     0        cutoff              0.0000        0.0000     1855    0.00%
Elapsed time = 1.39 sec. (1072.03 ticks, tree = 0.01 MB, solutions = 1)

Root node processing (before b&c):
  Real time             =    1.39 sec. (1072.27 ticks)
Sequential b&c:
  Real time             =    0.00 sec. (0.00 ticks)
                          ------------
Total (root+branch&cut) =    1.39 sec. (1072.27 ticks)
Version identifier: 22.1.0.0 | 2022-03-09 | 1a383f8ce
CPXPARAM_Threads                                 1
CPXPARAM_MIP_Strategy_VariableSelect             3
CPXPARAM_TimeLimit                               598.37223182299999
Tried aggregator 1 time.
MIP Presolve eliminated 18 rows and 0 columns.
MIP Presolve modified 1 coefficients.
Reduced MIP has 3971 rows, 8820 columns, and 93487 nonzeros.
Reduced MIP has 8820 binaries, 0 generals, 0 SOSs, and 0 indicators.
Presolve time = 0.05 sec. (42.87 ticks)
Probing time = 0.01 sec. (4.38 ticks)
Tried aggregator 1 time.
Detecting symmetries...
Reduced MIP has 3971 rows, 8820 columns, and 93487 nonzeros.
Reduced MIP has 8820 binaries, 0 generals, 0 SOSs, and 0 indicators.
Presolve time = 0.06 sec. (54.97 ticks)
Probing time = 0.01 sec. (4.38 ticks)
Clique table members: 2636.
MIP emphasis: balance optimality and feasibility.
MIP search method: dynamic search.
Parallel mode: none, using 1 thread.
Root relaxation solution time = 0.42 sec. (369.72 ticks)

        Nodes                                         Cuts/
   Node  Left     Objective  IInf  Best Integer    Best Bound    ItCnt     Gap

      0     0        0.0000  1272                      0.0000     2747         
*     0+    0                            0.0000        0.0000             0.00%
      0     0        cutoff              0.0000        0.0000     2747    0.00%
Elapsed time = 2.78 sec. (2542.99 ticks, tree = 0.01 MB, solutions = 1)

Root node processing (before b&c):
  Real time             =    2.78 sec. (2543.26 ticks)
Sequential b&c:
  Real time             =    0.00 sec. (0.00 ticks)
                          ------------
Total (root+branch&cut) =    2.78 sec. (2543.26 ticks)
Version identifier: 22.1.0.0 | 2022-03-09 | 1a383f8ce
CPXPARAM_Threads                                 1
CPXPARAM_MIP_Strategy_VariableSelect             3
CPXPARAM_TimeLimit                               595.53976542299995
Tried aggregator 1 time.
MIP Presolve eliminated 18 rows and 0 columns.
MIP Presolve modified 1 coefficients.
Reduced MIP has 4241 rows, 9420 columns, and 99877 nonzeros.
Reduced MIP has 9420 binaries, 0 generals, 0 SOSs, and 0 indicators.
Presolve time = 0.05 sec. (45.76 ticks)
Probing time = 0.01 sec. (4.51 ticks)
Tried aggregator 1 time.
Detecting symmetries...
Reduced MIP has 4241 rows, 9420 columns, and 99877 nonzeros.
Reduced MIP has 9420 binaries, 0 generals, 0 SOSs, and 0 indicators.
Presolve time = 0.07 sec. (58.70 ticks)
Probing time = 0.01 sec. (4.51 ticks)
Clique table members: 2816.
MIP emphasis: balance optimality and feasibility.
MIP search method: dynamic search.
Parallel mode: none, using 1 thread.
Root relaxation solution time = 0.88 sec. (825.28 ticks)

        Nodes                                         Cuts/
   Node  Left     Objective  IInf  Best Integer    Best Bound    ItCnt     Gap

      0     0        0.0000  1552                      0.0000     4053         
*     0+    0                            0.0000        0.0000             0.00%
      0     0        cutoff              0.0000        0.0000     4053    0.00%
Elapsed time = 9.60 sec. (8649.38 ticks, tree = 0.01 MB, solutions = 1)

Root node processing (before b&c):
  Real time             =    9.60 sec. (8649.67 ticks)
Sequential b&c:
  Real time             =    0.00 sec. (0.00 ticks)
                          ------------
Total (root+branch&cut) =    9.60 sec. (8649.67 ticks)
Version identifier: 22.1.0.0 | 2022-03-09 | 1a383f8ce
CPXPARAM_Threads                                 1
CPXPARAM_MIP_Strategy_VariableSelect             3
CPXPARAM_TimeLimit                               585.88872938700001
Tried aggregator 1 time.
MIP Presolve eliminated 18 rows and 0 columns.
MIP Presolve modified 1 coefficients.
Reduced MIP has 4376 rows, 9720 columns, and 103072 nonzeros.
Reduced MIP has 9720 binaries, 0 generals, 0 SOSs, and 0 indicators.
Presolve time = 0.06 sec. (47.19 ticks)
Probing time = 0.01 sec. (4.58 ticks)
Tried aggregator 1 time.
Detecting symmetries...
Reduced MIP has 4376 rows, 9720 columns, and 103072 nonzeros.
Reduced MIP has 9720 binaries, 0 generals, 0 SOSs, and 0 indicators.
Presolve time = 0.07 sec. (60.57 ticks)
Probing time = 0.01 sec. (4.58 ticks)
Clique table members: 2906.
MIP emphasis: balance optimality and feasibility.
MIP search method: dynamic search.
Parallel mode: none, using 1 thread.
Root relaxation solution time = 3.98 sec. (3726.09 ticks)

        Nodes                                         Cuts/
   Node  Left     Objective  IInf  Best Integer    Best Bound    ItCnt     Gap

      0     0        0.0000  1992                      0.0000    10150         
      0     0        0.0000   106                 ZeroHalf: 1    12162         
      0     0        0.0000   172                    Cuts: 16    15012         
*     0+    0                            0.0000        0.0000             0.00%
      0     0        cutoff              0.0000        0.0000    15012    0.00%
Elapsed time = 40.92 sec. (40800.31 ticks, tree = 0.01 MB, solutions = 1)

Clique cuts applied:  2
Zero-half cuts applied:  7
Gomory fractional cuts applied:  3

Root node processing (before b&c):
  Real time             =   40.92 sec. (40800.98 ticks)
Sequential b&c:
  Real time             =    0.00 sec. (0.00 ticks)
                          ------------
Total (root+branch&cut) =   40.92 sec. (40800.98 ticks)
Version identifier: 22.1.0.0 | 2022-03-09 | 1a383f8ce
CPXPARAM_Threads                                 1
CPXPARAM_MIP_Strategy_VariableSelect             3
CPXPARAM_TimeLimit                               544.91428601300004
Tried aggregator 1 time.
MIP Presolve eliminated 18 rows and 0 columns.
MIP Presolve modified 1 coefficients.
Reduced MIP has 4439 rows, 9860 columns, and 104563 nonzeros.
Reduced MIP has 9860 binaries, 0 generals, 0 SOSs, and 0 indicators.
Presolve time = 0.06 sec. (47.79 ticks)
Probing time = 0.01 sec. (4.61 ticks)
Tried aggregator 1 time.
Detecting symmetries...
Reduced MIP has 4439 rows, 9860 columns, and 104563 nonzeros.
Reduced MIP has 9860 binaries, 0 generals, 0 SOSs, and 0 indicators.
Presolve time = 0.07 sec. (61.35 ticks)
Probing time = 0.01 sec. (4.61 ticks)
Clique table members: 2948.
MIP emphasis: balance optimality and feasibility.
MIP search method: dynamic search.
Parallel mode: none, using 1 thread.
Root relaxation solution time = 4.09 sec. (3833.19 ticks)

        Nodes                                         Cuts/
   Node  Left     Objective  IInf  Best Integer    Best Bound    ItCnt     Gap

      0     0        0.0000  2077                      0.0000    10132         
      0     0        0.0000   118                 ZeroHalf: 1    11046         
      0     0        0.0000   375                    Cuts: 80    16233         
*     0+    0                            0.0000        0.0000             0.00%
      0     0        cutoff              0.0000        0.0000    16233    0.00%
Elapsed time = 75.22 sec. (75737.72 ticks, tree = 0.01 MB, solutions = 1)

Clique cuts applied:  5
Zero-half cuts applied:  19
Lift and project cuts applied:  6
Gomory fractional cuts applied:  10

Root node processing (before b&c):
  Real time             =   75.22 sec. (75738.40 ticks)
Sequential b&c:
  Real time             =    0.00 sec. (0.00 ticks)
                          ------------
Total (root+branch&cut) =   75.22 sec. (75738.40 ticks)
Version identifier: 22.1.0.0 | 2022-03-09 | 1a383f8ce
CPXPARAM_Threads                                 1
CPXPARAM_MIP_Strategy_VariableSelect             3
CPXPARAM_TimeLimit                               469.63996282699998
Tried aggregator 1 time.
MIP Presolve eliminated 18 rows and 0 columns.
MIP Presolve modified 1 coefficients.
Reduced MIP has 4475 rows, 9940 columns, and 105415 nonzeros.
Reduced MIP has 9940 binaries, 0 generals, 0 SOSs, and 0 indicators.
Presolve time = 0.06 sec. (48.25 ticks)
Probing time = 0.01 sec. (4.62 ticks)
Tried aggregator 1 time.
Detecting symmetries...
Reduced MIP has 4475 rows, 9940 columns, and 105415 nonzeros.
Reduced MIP has 9940 binaries, 0 generals, 0 SOSs, and 0 indicators.
Presolve time = 0.07 sec. (61.92 ticks)
Probing time = 0.01 sec. (4.62 ticks)
Clique table members: 2972.
MIP emphasis: balance optimality and feasibility.
MIP search method: dynamic search.
Parallel mode: none, using 1 thread.
Root relaxation solution time = 4.22 sec. (4042.89 ticks)

        Nodes                                         Cuts/
   Node  Left     Objective  IInf  Best Integer    Best Bound    ItCnt     Gap

      0     0        0.0000  2176                      0.0000    10025         
      0     0        0.0000   205                  Cliques: 3    11050         
      0     0        0.0000   760                   Cuts: 122    14346         
*     0+    0                            0.0000        0.0000             0.00%
      0     0        cutoff              0.0000        0.0000    14346    0.00%
Elapsed time = 81.74 sec. (82298.25 ticks, tree = 0.01 MB, solutions = 1)

Clique cuts applied:  7
Zero-half cuts applied:  35
Lift and project cuts applied:  2
Gomory fractional cuts applied:  6

Root node processing (before b&c):
  Real time             =   81.74 sec. (82298.94 ticks)
Sequential b&c:
  Real time             =    0.00 sec. (0.00 ticks)
                          ------------
Total (root+branch&cut) =   81.74 sec. (82298.94 ticks)
Version identifier: 22.1.0.0 | 2022-03-09 | 1a383f8ce
CPXPARAM_Threads                                 1
CPXPARAM_MIP_Strategy_VariableSelect             3
CPXPARAM_TimeLimit                               387.83881593799998
Tried aggregator 1 time.
MIP Presolve eliminated 18 rows and 0 columns.
MIP Presolve modified 1 coefficients.
Reduced MIP has 4493 rows, 9980 columns, and 105841 nonzeros.
Reduced MIP has 9980 binaries, 0 generals, 0 SOSs, and 0 indicators.
Presolve time = 0.06 sec. (48.36 ticks)
Probing time = 0.01 sec. (4.63 ticks)
Tried aggregator 1 time.
Detecting symmetries...
Reduced MIP has 4493 rows, 9980 columns, and 105841 nonzeros.
Reduced MIP has 9980 binaries, 0 generals, 0 SOSs, and 0 indicators.
Presolve time = 0.07 sec. (62.09 ticks)
Probing time = 0.01 sec. (4.63 ticks)
Clique table members: 2984.
MIP emphasis: balance optimality and feasibility.
MIP search method: dynamic search.
Parallel mode: none, using 1 thread.
Root relaxation solution time = 4.28 sec. (4124.58 ticks)

        Nodes                                         Cuts/
   Node  Left     Objective  IInf  Best Integer    Best Bound    ItCnt     Gap

      0     0        0.0000  2244                      0.0000     9920         
      0     0        0.0000   122                  Cliques: 4    10421         
      0     0        0.0000   251                    Cuts: 64    15351         
      0     2        0.0000    37                      0.0000    15351         
Elapsed time = 93.29 sec. (97062.41 ticks, tree = 0.01 MB, solutions = 0)
      1     3        0.0000   500                      0.0000    36420         
      2     4        0.0000   188                      0.0000    45149         
      3     5        0.0000   932                      0.0000    59516         
      4     6        0.0000   340                      0.0000    61769         
      5     7        0.0000   356                      0.0000    64150         
      6     8        0.0000   338                      0.0000    64434         
      7     9        0.0000   350                      0.0000    69620         
      8    10        0.0000   345                      0.0000    70206         
      9    11        0.0000   337                      0.0000    70996         
     10    12        0.0000   453                      0.0000    73579         
Elapsed time = 127.47 sec. (129317.55 ticks, tree = 0.21 MB, solutions = 0)
     12    14        0.0000   816                      0.0000    80243         
     14    16        0.0000   385                      0.0000    83292         
     16    18        0.0000   361                      0.0000    85553         
     19    21        0.0000   330                      0.0000    85884         
     22    24        0.0000   339                      0.0000    86289         
     25    27        0.0000   329                      0.0000    87224         
     28    30        0.0000   316                      0.0000    87558         
     30    32        0.0000   315                      0.0000    92238         
     33    35        0.0000   309                      0.0000    92495         
     36    38        0.0000   258                      0.0000    94650         
Elapsed time = 142.37 sec. (142954.03 ticks, tree = 1.24 MB, solutions = 0)
     39    41        0.0000   256                      0.0000    95204         
     40    42        0.0000   262                      0.0000    95311         
     43    45        0.0000   260                      0.0000    95613         
     46    48        0.0000   280                      0.0000    97118         
     48    50        0.0000   299                      0.0000    99245         
     51    53        0.0000   256                      0.0000   101137         
     54    56        0.0000   309                      0.0000   103109         
     56    58        0.0000   250                      0.0000   110204         
     59    61        0.0000   245                      0.0000   112568         
     62    64        0.0000   248                      0.0000   114003         
Elapsed time = 155.64 sec. (154888.04 ticks, tree = 2.20 MB, solutions = 0)
     65    67        0.0000   238                      0.0000   114247         
     68    70        0.0000   210                      0.0000   115865         
     70    72        0.0000   212                      0.0000   116118         
     73    75        0.0000   217                      0.0000   117133         
     77    79        0.0000   212                      0.0000   117476         
     80    82        0.0000   212                      0.0000   117766         
     84    86        0.0000   208                      0.0000   118628         
     88    90        0.0000   198                      0.0000   119985         
     92    94        0.0000   209                      0.0000   120487         
     95    97        0.0000   211                      0.0000   122548         
Elapsed time = 167.98 sec. (166729.23 ticks, tree = 3.48 MB, solutions = 0)
     98   100        0.0000   165                      0.0000   124310         
    100   102        0.0000   190                      0.0000   129679         
    103   105        0.0000   148                      0.0000   132513         
    106   108        0.0000   153                      0.0000   135098         
    110   112        0.0000   133                      0.0000   136511         
    114   116        0.0000   125                      0.0000   138197         
    118   120        0.0000   122                      0.0000   139553         
    120   122        0.0000   109                      0.0000   142437         
    123   125        0.0000   111                      0.0000   144558         
    124   126        0.0000   207                      0.0000   151577         
Elapsed time = 189.22 sec. (187003.82 ticks, tree = 4.61 MB, solutions = 0)
    126   128        0.0000   219                      0.0000   158304         
    129   131        0.0000   200                      0.0000   159745         
    132   134        0.0000   182                      0.0000   161724         
    135   137        0.0000   171                      0.0000   163390         
    139   141        0.0000   155                      0.0000   164971         
    142   144        0.0000   147                      0.0000   167095         
    146   148        0.0000   172                      0.0000   170491         
    150   152        0.0000   142                      0.0000   170932         
    154   156        0.0000   140                      0.0000   171805         
    157   159        0.0000   143                      0.0000   175792         
Elapsed time = 201.85 sec. (198641.65 ticks, tree = 5.90 MB, solutions = 0)
    160   162        0.0000   133                      0.0000   177666         
    163   165        0.0000   177                      0.0000   181774         
    167   169        0.0000   137                      0.0000   184175         
    171   173        0.0000   159                      0.0000   186548         
    175   177        0.0000   151                      0.0000   189200         
    179   181        0.0000   129                      0.0000   189946         
    183   185        0.0000   129                      0.0000   192102         
    186   188        0.0000   129                      0.0000   196253         
    190   192        0.0000   135                      0.0000   201926         
    194   196        0.0000   121                      0.0000   205432         
Elapsed time = 214.34 sec. (210228.96 ticks, tree = 7.38 MB, solutions = 0)
    197   199        0.0000   101                      0.0000   208878         
    200   202        0.0000   269                      0.0000   217932         
    203   205        0.0000   117                      0.0000   222039         
    206   208        0.0000    85                      0.0000   225365         
    207   209        0.0000   131                      0.0000   231030         
    210   211        0.0000   353                      0.0000   248728         
    212   213        0.0000   604                      0.0000   259176         
    214   215        0.0000    96                      0.0000   260289         
    215   216        0.0000    99                      0.0000   262642         
    217   218        0.0000   140                      0.0000   265695         
Elapsed time = 234.45 sec. (229430.96 ticks, tree = 8.20 MB, solutions = 0)
    219   220        0.0000   100                      0.0000   266975         
    220   221        0.0000   196                      0.0000   275086         
    222   223        0.0000   472                      0.0000   286259         
    224   225        0.0000   141                      0.0000   288157         
    226   227        0.0000   538                      0.0000   291530         
    229   230        0.0000   105                      0.0000   294829         
    232   233        0.0000   102                      0.0000   297007         
    233   234        0.0000   172                      0.0000   304839         
    235   236        0.0000   283                      0.0000   311359         
    237   238        0.0000   270                      0.0000   317856         
Elapsed time = 254.27 sec. (247619.22 ticks, tree = 8.98 MB, solutions = 0)
    239   240        0.0000   138                      0.0000   321049         
    243   244        0.0000   112                      0.0000   322500         
    245   246        0.0000   110                      0.0000   325829         
    248   249        0.0000   182                      0.0000   331962         
    252   253        0.0000    78                      0.0000   334010         
    256   257        0.0000    82                      0.0000   338359         
    262   263        0.0000    90                      0.0000   340425         
    266   267        0.0000    68                      0.0000   343383         
    269   270        0.0000   269                      0.0000   353796         
    283   284        0.0000   457                      0.0000   376895         
Elapsed time = 274.22 sec. (266539.54 ticks, tree = 10.79 MB, solutions = 0)
    289   290        0.0000   117                      0.0000   387653         
    295   296        0.0000   115                      0.0000   409652         
    308   309        0.0000   122                      0.0000   422497         
    322   321        0.0000   127                      0.0000   434929         
    335   334        0.0000   125                      0.0000   451528         
    347   346        0.0000   149                      0.0000   461717         
    359   358        0.0000   138                      0.0000   474803         
    371   370        0.0000   113                      0.0000   482806         
    380   377        0.0000   146                      0.0000   501071         
    393   386    infeasible                            0.0000   519475         
Elapsed time = 316.58 sec. (307031.21 ticks, tree = 14.85 MB, solutions = 0)
    407   400        0.0000   134                      0.0000   530510         
    423   414        0.0000   171                      0.0000   548292         
    438   429        0.0000   133                      0.0000   561949         
    448   439        0.0000   128                      0.0000   576221         
    455   440        0.0000   108                      0.0000   593548         
    459   443        0.0000   250                      0.0000   616594         
    466   450        0.0000   309                      0.0000   628100         
    474   458        0.0000   267                      0.0000   644209         
    483   467        0.0000    91                      0.0000   663494         
    499   483        0.0000    64                      0.0000   674242         
Elapsed time = 362.11 sec. (349613.67 ticks, tree = 18.61 MB, solutions = 0)
    513   497        0.0000    65                      0.0000   685817         
    527   511        0.0000    83                      0.0000   700661         
    539   523        0.0000    78                      0.0000   710574         
    555   539        0.0000    79                      0.0000   725199         
    571   555        0.0000    67                      0.0000   738811         
    584   568        0.0000    96                      0.0000   753916         

Clique cuts applied:  14
Zero-half cuts applied:  16
Lift and project cuts applied:  1
Gomory fractional cuts applied:  3

Root node processing (before b&c):
  Real time             =   93.22 sec. (97010.54 ticks)
Sequential b&c:
  Real time             =  294.62 sec. (277181.74 ticks)
                          ------------
Total (root+branch&cut) =  387.84 sec. (374192.28 ticks)
Primal:	497
Dual:	500
Status:	Feasible
Time:	600.047
Sequence:
	3
	2
	2
	3
	2
	7
	3
	7
	2
	3
	2
	2
	3
	0
	7
	3
	2
	2
	3
	2
	7
	3
	0
